Running for instance ./models/c203.txt
Generating routes...
Execution time:  3.060576  seconds
Academic license - for non-commercial use only
Warning: constraint name "Cliente esta na rota x1" has a space
Optimize a model with 26 rows, 10000 columns and 76268 nonzeros
Variable types: 0 continuous, 10000 integer (0 binary)
Coefficient statistics:
  Matrix range     [1e+00, 1e+00]
  Objective range  [2e+01, 3e+02]
  Bounds range     [1e+00, 1e+00]
  RHS range        [1e+00, 2e+01]
Found heuristic solution: objective 494.7153685
Presolve removed 1 rows and 1795 columns
Presolve time: 0.07s
Presolved: 25 rows, 8205 columns, 55045 nonzeros
Variable types: 0 continuous, 8205 integer (8205 binary)

Root relaxation: objective 3.243850e+02, 93 iterations, 0.01 seconds

    Nodes    |    Current Node    |     Objective Bounds      |     Work
 Expl Unexpl |  Obj  Depth IntInf | Incumbent    BestBd   Gap | It/Node Time

     0     0  324.38503    0   25  494.71537  324.38503  34.4%     -    0s
H    0     0                     339.6617660  324.38503  4.50%     -    0s
     0     0  325.34913    0   25  339.66177  325.34913  4.21%     -    0s
     0     0  325.41884    0   25  339.66177  325.41884  4.19%     -    0s
     0     0  325.43976    0   24  339.66177  325.43976  4.19%     -    0s
     0     0  325.44480    0   24  339.66177  325.44480  4.19%     -    0s
     0     0  325.44480    0   24  339.66177  325.44480  4.19%     -    0s

Explored 1 nodes (122 simplex iterations) in 0.19 seconds
Thread count was 8 (of 8 available processors)

Solution count 2: 339.662 494.715 

Optimal solution found (tolerance 1.00e-04)
Best objective 3.396617659528e+02, best bound 3.396617659528e+02, gap 0.0000%

Routes:
9 11
22 6 23 17 13 25
5 2 4 7 3 1 12 19 16 18 14 15 10 8 21 20 24

Distance: 339.661765953
Execution time:  4.129017  seconds
